50
    49    48     5    53     9    76    18    22    47    84    97     1    32    57     6    36    44    23    70    60    82    48    83    99    59    41     4    69     3    49    57    75    61    63    32    14    91    11    85    75    70    65    37    35    89    35    74    64    56    73
     3     5     5     7     1     7     7     1     4     5     4     8     6     4     9     9     4     1     3     4     1     3     7     7     4    10     1     1     4     7     6     6     9     6     3    10     9     6    10     7     1     6     8     8     5     7     6     3     5     3
  1485   806   915  1841  2368  1088  1952  2305  2116  1415  1611  1138  1255  1025  1780  1293  1527  1058   659  1000  1409  1188   934  2062   718  1341   719   927  2213  2389  1726  1038  2018  1778  2237  1875  1344  2338  1216  1173   978  1823  1415  2204   843  1722  1334  1808   563   862
